p cep 139 1583
1 75
3 7
3 10
3 11
3 24
3 30
3 36
3 37
3 40
3 42
3 44
3 46
3 51
3 52
3 54
3 61
3 85
3 86
3 88
3 89
3 90
3 92
3 96
3 100
3 101
3 112
3 118
3 119
3 122
3 124
3 130
4 16
4 20
4 21
4 25
4 26
4 31
4 34
4 64
4 128
5 29
5 57
5 66
5 111
6 15
6 18
6 23
6 24
6 37
6 38
6 43
6 49
6 52
6 55
6 57
6 58
6 59
6 60
6 61
6 65
6 66
6 70
6 71
6 74
6 81
6 85
6 89
6 94
6 96
6 97
6 100
6 107
6 109
6 110
6 113
6 118
6 119
6 131
6 133
7 11
7 15
7 22
7 24
7 36
7 38
7 40
7 44
7 45
7 46
7 49
7 51
7 52
7 54
7 61
7 65
7 70
7 76
7 85
7 86
7 88
7 89
7 90
7 93
7 96
7 97
7 100
7 101
7 104
7 115
7 118
7 119
7 121
7 124
7 130
7 139
8 135
9 106
10 11
10 24
10 30
10 36
10 37
10 40
10 42
10 44
10 46
10 51
10 52
10 54
10 61
10 85
10 86
10 88
10 89
10 90
10 92
10 96
10 101
10 112
10 118
10 119
10 122
10 124
10 130
11 24
11 30
11 36
11 37
11 38
11 40
11 41
11 42
11 44
11 46
11 49
11 51
11 52
11 54
11 61
11 65
11 70
11 85
11 86
11 88
11 89
11 90
11 92
11 96
11 100
11 101
11 112
11 115
11 118
11 119
11 122
11 124
11 130
11 139
13 24
13 37
13 43
13 52
13 79
13 85
13 91
13 127
15 18
15 19
15 23
15 24
15 28
15 32
15 35
15 36
15 37
15 38
15 39
15 43
15 46
15 49
15 50
15 51
15 52
15 55
15 57
15 58
15 59
15 60
15 61
15 65
15 66
15 70
15 71
15 74
15 79
15 81
15 82
15 85
15 88
15 89
15 90
15 91
15 94
15 96
15 97
15 100
15 103
15 105
15 107
15 109
15 110
15 111
15 113
15 115
15 118
15 119
15 121
15 131
15 133
15 134
15 139
16 20
16 21
16 26
16 31
16 34
16 64
16 128
17 123
18 19
18 23
18 24
18 28
18 32
18 37
18 38
18 52
18 55
18 57
18 58
18 59
18 60
18 65
18 66
18 70
18 71
18 74
18 79
18 81
18 85
18 89
18 91
18 94
18 100
18 103
18 107
18 109
18 110
18 111
18 113
18 118
18 121
18 131
18 133
18 139
19 23
19 28
19 32
19 38
19 39
19 50
19 52
19 55
19 59
19 71
19 74
19 79
19 81
19 85
19 91
19 94
19 103
19 107
19 109
19 110
19 118
20 21
20 25
20 26
20 31
20 34
20 64
20 128
21 25
21 26
21 31
21 34
21 64
21 128
22 45
22 93
22 104
22 115
23 24
23 28
23 32
23 36
23 37
23 38
23 39
23 43
23 46
23 50
23 51
23 52
23 55
23 57
23 58
23 59
23 60
23 61
23 65
23 66
23 70
23 71
23 74
23 79
23 81
23 82
23 85
23 90
23 91
23 94
23 96
23 97
23 100
23 103
23 105
23 107
23 109
23 110
23 111
23 113
23 118
23 131
23 133
23 134
23 139
24 28
24 32
24 35
24 36
24 37
24 38
24 39
24 40
24 43
24 44
24 46
24 49
24 50
24 51
24 52
24 55
24 57
24 58
24 59
24 60
24 61
24 65
24 66
24 70
24 71
24 74
24 79
24 81
24 82
24 85
24 86
24 88
24 89
24 90
24 91
24 92
24 94
24 96
24 97
24 100
24 101
24 103
24 105
24 107
24 109
24 110
24 111
24 113
24 115
24 118
24 119
24 121
24 124
24 127
24 130
24 131
24 133
24 134
24 139
25 26
25 31
25 34
25 64
25 125
25 128
26 31
26 34
26 64
26 128
27 35
27 39
27 57
27 58
27 65
27 66
27 70
27 111
27 118
27 134
28 32
28 37
28 46
28 50
28 51
28 52
28 55
28 59
28 71
28 74
28 79
28 81
28 85
28 90
28 91
28 94
28 100
28 103
28 107
28 109
28 110
28 113
28 118
28 139
29 35
29 39
29 57
29 58
29 66
29 100
29 111
30 36
30 38
30 40
30 41
30 42
30 46
30 51
30 54
30 70
30 86
30 90
30 92
30 96
30 112
30 118
30 124
30 130
30 139
31 34
31 64
31 128
32 50
32 52
32 55
32 59
32 71
32 74
32 79
32 81
32 85
32 91
32 94
32 103
32 107
32 109
32 110
32 113
32 139
34 64
34 128
35 39
35 57
35 58
35 65
35 66
35 70
35 111
35 118
35 134
36 37
36 38
36 40
36 41
36 42
36 44
36 46
36 49
36 51
36 52
36 54
36 55
36 57
36 58
36 59
36 60
36 61
36 65
36 66
36 70
36 74
36 85
36 86
36 88
36 89
36 90
36 92
36 96
36 97
36 100
36 101
36 107
36 109
36 110
36 112
36 115
36 118
36 119
36 122
36 124
36 130
36 133
36 139
37 38
37 39
37 43
37 44
37 46
37 51
37 52
37 54
37 55
37 57
37 58
37 59
37 60
37 61
37 65
37 66
37 70
37 71
37 74
37 79
37 81
37 85
37 88
37 89
37 90
37 91
37 92
37 94
37 96
37 97
37 100
37 101
37 105
37 107
37 109
37 110
37 111
37 113
37 118
37 119
37 121
37 127
37 130
37 131
37 133
37 139
38 42
38 44
38 45
38 46
38 49
38 51
38 52
38 54
38 55
38 57
38 58
38 59
38 60
38 61
38 65
38 66
38 70
38 71
38 81
38 82
38 85
38 88
38 89
38 90
38 94
38 96
38 97
38 100
38 101
38 105
38 107
38 109
38 110
38 115
38 118
38 119
38 121
38 122
38 133
38 139
39 51
39 52
39 55
39 57
39 58
39 59
39 60
39 61
39 65
39 66
39 70
39 74
39 85
39 89
39 90
39 94
39 97
39 100
39 107
39 109
39 110
39 111
39 118
39 133
39 134
39 139
40 41
40 42
40 44
40 46
40 49
40 51
40 54
40 61
40 65
40 70
40 86
40 88
40 89
40 90
40 92
40 96
40 97
40 101
40 102
40 112
40 115
40 118
40 119
40 122
40 124
40 130
40 133
40 139
41 46
41 51
41 86
41 90
41 96
41 124
42 46
42 51
42 86
42 90
42 92
42 112
42 118
42 122
42 124
42 130
43 52
43 55
43 59
43 60
43 61
43 85
43 89
43 94
43 97
43 100
43 107
43 109
43 110
43 113
43 118
43 127
43 131
43 133
43 139
44 46
44 51
44 52
44 54
44 58
44 61
44 65
44 66
44 70
44 82
44 85
44 86
44 88
44 89
44 90
44 92
44 96
44 101
44 105
44 112
44 118
44 119
44 124
44 130
44 133
44 139
45 93
45 104
45 115
45 118
45 119
45 139
46 49
46 51
46 52
46 54
46 55
46 59
46 61
46 65
46 70
46 74
46 82
46 85
46 86
46 88
46 89
46 90
46 92
46 94
46 96
46 97
46 100
46 101
46 107
46 109
46 110
46 112
46 115
46 118
46 119
46 122
46 124
46 130
46 133
46 139
48 67
48 116
49 51
49 52
49 53
49 54
49 60
49 61
49 65
49 70
49 82
49 85
49 88
49 89
49 90
49 100
49 105
49 107
49 115
49 118
49 119
49 121
49 133
49 139
50 52
50 55
50 59
50 74
50 79
50 81
50 85
50 91
50 94
50 103
50 107
50 109
50 110
50 113
50 129
51 52
51 54
51 55
51 57
51 58
51 59
51 60
51 61
51 65
51 66
51 70
51 74
51 76
51 82
51 85
51 86
51 88
51 89
51 90
51 92
51 94
51 96
51 97
51 100
51 101
51 107
51 109
51 110
51 112
51 115
51 118
51 119
51 122
51 124
51 130
51 133
51 139
52 55
52 57
52 58
52 59
52 60
52 61
52 65
52 66
52 70
52 71
52 74
52 79
52 81
52 82
52 85
52 88
52 89
52 90
52 91
52 92
52 94
52 96
52 97
52 100
52 101
52 103
52 105
52 107
52 109
52 110
52 111
52 112
52 113
52 115
52 118
52 119
52 121
52 127
52 130
52 131
52 133
52 134
52 139
53 61
53 83
53 89
53 105
53 119
53 139
54 61
54 65
54 70
54 85
54 86
54 88
54 89
54 90
54 92
54 96
54 100
54 101
54 112
54 115
54 118
54 119
54 124
54 130
54 133
54 139
55 57
55 58
55 59
55 60
55 61
55 65
55 66
55 70
55 71
55 74
55 79
55 81
55 82
55 85
55 89
55 90
55 91
55 94
55 96
55 97
55 100
55 101
55 103
55 105
55 107
55 109
55 110
55 111
55 113
55 118
55 119
55 131
55 133
55 134
55 139
56 95
57 58
57 59
57 60
57 61
57 65
57 66
57 70
57 71
57 74
57 81
57 82
57 85
57 88
57 89
57 90
57 91
57 94
57 96
57 97
57 100
57 103
57 107
57 109
57 110
57 111
57 113
57 118
57 119
57 131
57 133
57 134
57 139
58 59
58 60
58 65
58 66
58 70
58 71
58 74
58 85
58 90
58 91
58 94
58 96
58 97
58 100
58 107
58 109
58 110
58 111
58 113
58 118
58 119
58 131
58 133
58 134
58 139
59 60
59 61
59 65
59 66
59 70
59 71
59 74
59 79
59 81
59 82
59 85
59 90
59 91
59 94
59 96
59 97
59 100
59 103
59 105
59 107
59 109
59 110
59 111
59 113
59 118
59 131
59 133
59 134
59 139
60 61
60 65
60 66
60 70
60 71
60 74
60 81
60 85
60 89
60 90
60 94
60 96
60 97
60 100
60 105
60 107
60 109
60 110
60 113
60 118
60 119
60 131
60 133
60 139
61 65
61 70
61 81
61 82
61 83
61 85
61 86
61 88
61 89
61 90
61 92
61 94
61 96
61 97
61 100
61 101
61 103
61 105
61 107
61 109
61 110
61 112
61 113
61 115
61 118
61 119
61 121
61 124
61 130
61 133
61 139
62 117
62 126
63 73
63 78
63 84
63 98
64 128
65 66
65 70
65 71
65 74
65 81
65 82
65 85
65 86
65 88
65 89
65 90
65 94
65 96
65 97
65 100
65 101
65 105
65 107
65 109
65 110
65 111
65 113
65 115
65 118
65 119
65 121
65 122
65 124
65 131
65 133
65 134
65 139
66 70
66 71
66 74
66 82
66 85
66 90
66 91
66 94
66 96
66 97
66 100
66 107
66 109
66 110
66 111
66 113
66 118
66 119
66 131
66 133
66 134
66 139
67 116
69 75
70 71
70 74
70 81
70 82
70 83
70 85
70 86
70 88
70 89
70 90
70 91
70 94
70 96
70 97
70 100
70 101
70 105
70 107
70 109
70 110
70 111
70 113
70 115
70 118
70 119
70 121
70 124
70 131
70 133
70 134
70 139
71 74
71 79
71 81
71 85
71 91
71 94
71 100
71 103
71 107
71 109
71 110
71 111
71 113
71 118
71 133
71 139
72 135
73 78
73 84
73 98
74 79
74 81
74 82
74 85
74 90
74 91
74 94
74 96
74 97
74 100
74 103
74 107
74 109
74 110
74 111
74 113
74 118
74 119
74 131
74 133
74 139
76 86
76 90
76 97
78 84
78 98
79 81
79 85
79 91
79 94
79 103
79 107
79 109
79 110
79 127
81 85
81 89
81 91
81 94
81 103
81 107
81 109
81 110
81 113
81 118
81 131
81 133
82 89
82 90
82 94
82 107
82 110
82 118
82 119
82 121
82 139
84 98
85 86
85 88
85 89
85 90
85 91
85 92
85 94
85 96
85 97
85 100
85 101
85 103
85 105
85 107
85 109
85 110
85 112
85 113
85 115
85 118
85 119
85 121
85 127
85 130
85 131
85 133
85 134
85 139
86 88
86 89
86 90
86 92
86 96
86 97
86 100
86 101
86 102
86 108
86 112
86 115
86 118
86 119
86 122
86 124
86 130
86 133
86 136
86 139
88 89
88 90
88 92
88 96
88 100
88 101
88 107
88 109
88 110
88 112
88 115
88 118
88 119
88 124
88 130
88 139
89 90
89 92
89 94
89 96
89 97
89 100
89 101
89 103
89 105
89 107
89 109
89 112
89 113
89 115
89 118
89 119
89 121
89 124
89 130
89 133
89 134
89 139
90 92
90 94
90 96
90 97
90 100
90 101
90 107
90 109
90 110
90 112
90 115
90 118
90 119
90 121
90 122
90 124
90 130
90 133
90 139
91 94
91 96
91 100
91 103
91 107
91 109
91 110
91 113
91 118
91 127
91 133
91 139
92 96
92 101
92 112
92 119
92 122
92 124
92 130
93 104
93 115
93 119
93 139
94 96
94 97
94 100
94 103
94 107
94 109
94 110
94 113
94 118
94 119
94 131
94 133
94 139
96 97
96 100
96 101
96 107
96 109
96 110
96 112
96 115
96 118
96 119
96 122
96 124
96 130
96 133
96 139
97 100
97 107
97 109
97 110
97 113
97 115
97 118
97 119
97 121
97 124
97 131
97 133
97 139
100 101
100 107
100 109
100 110
100 112
100 113
100 115
100 118
100 119
100 121
100 130
100 131
100 133
100 134
100 139
101 107
101 112
101 115
101 118
101 119
101 122
101 124
101 130
101 139
102 108
102 120
102 124
102 136
103 107
103 109
103 110
103 113
103 118
103 133
103 139
104 115
105 110
105 118
105 119
105 121
105 133
105 139
107 109
107 110
107 111
107 113
107 118
107 119
107 121
107 131
107 133
107 134
107 139
108 120
108 136
109 110
109 111
109 113
109 118
109 119
109 121
109 131
109 133
109 134
109 139
110 111
110 113
110 118
110 131
110 133
110 134
110 139
111 134
112 118
112 119
112 122
112 124
112 130
113 118
113 129
113 131
113 133
114 132
115 118
115 119
115 121
115 124
115 139
117 126
118 119
118 121
118 130
118 131
118 133
118 134
118 139
119 121
119 130
119 131
119 133
119 139
120 136
121 133
121 139
122 124
122 130
124 130
124 139
131 133
133 139
